50
100
19 186 54 131 96 98 23 71 133 51 141 30 24 73 191 67 82 12 116 100 173 109 126 27 40 35 79 8 90 44 143 182 149 91 113 36 2 166 161 104 115 53 2 12 97 13 69 200 175 42 198 107 149 55 14 139 34 129 135 58 55 83 111 177 194 104 10 142 32 50 173 5 185 60 78 114 112 29 71 22 36 113 11 57 144 97 13 48 87 28 35 178 157 101 187 117 139 139 48 135 
188 44 99 120 121 152 41 42 28 79 51 141 28 31 82 180 167 176 98 49 90 157 197 174 90 87 11 25 174 42 82 95 28 145 149 194 109 139 18 190 153 23 82 112 109 19 180 106 2 172 121 79 165 140 183 16 55 98 79 54 189 182 159 24 111 146 126 31 25 159 197 184 150 139 60 191 159 4 162 183 155 191 50 33 83 87 71 99 70 6 132 193 113 175 38 134 200 33 124 164 
